NAME Model5
ROWS
 N  OBJ
 E  c0      
 E  c1      
 E  c2      
 E  c3      
 E  c4      
 E  c5      
 E  c6      
 E  c7      
 E  c8      
 E  c9      
 L  c10     
 L  c11     
 L  c12     
 L  c13     
 L  c14     
 L  c15     
 L  c16     
 L  c17     
 L  c18     
 L  c19     
 G  c20     
 G  c21     
 G  c22     
 G  c23     
 G  c24     
 G  c25     
 G  c26     
 G  c27     
 G  c28     
 G  c29     
 G  c30     
 G  c31     
 G  c32     
 G  c33     
 G  c34     
 G  c35     
 G  c36     
 G  c37     
 G  c38     
 G  c39     
 G  c40     
 G  c41     
 G  c42     
 G  c43     
 G  c44     
 G  c45     
 G  c46     
 G  c47     
 G  c48     
 G  c49     
 G  c50     
 G  c51     
 G  c52     
 G  c53     
 G  c54     
 G  c55     
 G  c56     
 G  c57     
 G  c58     
 G  c59     
 G  c60     
 G  c61     
 G  c62     
 G  c63     
 G  c64     
 G  c65     
 G  c66     
 G  c67     
 G  c68     
 G  c69     
 G  c70     
 G  c71     
 G  c72     
 G  c73     
 G  c74     
 G  c75     
 G  c76     
 G  c77     
 G  c78     
 G  c79     
 G  c80     
 G  c81     
 G  c82     
 G  c83     
 G  c84     
 G  c85     
 G  c86     
 G  c87     
 G  c88     
 G  c89     
 G  c90     
 G  c91     
 G  c92     
 G  c93     
 G  c94     
 G  c95     
 G  c96     
 G  c97     
 G  c98     
 G  c99     
 G  c100    
 G  c101    
 G  c102    
 G  c103    
 G  c104    
 G  c105    
 G  c106    
 G  c107    
 G  c108    
 G  c109    
 G  c110    
 G  c111    
 G  c112    
 G  c113    
 G  c114    
 G  c115    
 G  c116    
 G  c117    
COLUMNS
    MARKER    'MARKER'                 'INTORG'
    y[j0_l0_i0]  c0        1
    y[j0_l0_i0]  c10       -1000
    y[j0_l0_i0]  c20       -1000
    y[j0_l0_i0]  c21       -1000
    y[j0_l0_i0]  c86       -1000
    y[j0_l0_i0]  c87       -1000
    y[j0_l0_i0]  c108      -3
    y[j0_l0_i0]  c109      -3
    y[j0_l0_i0]  c110      -3
    y[j0_l0_i0]  c111      -3
    y[j0_l0_i0]  c112      -3
    y[j0_l0_i0]  c113      -3
    y[j0_l0_i0]  c117      -3
    y[j0_l1_i1]  c1        1
    y[j0_l1_i1]  c11       -1000
    y[j0_l1_i1]  c22       -1000
    y[j0_l1_i1]  c23       -1000
    y[j0_l1_i1]  c24       -1000
    y[j0_l1_i1]  c25       -1000
    y[j0_l1_i1]  c26       -1000
    y[j0_l1_i1]  c27       -1000
    y[j0_l1_i1]  c28       -1000
    y[j0_l1_i1]  c29       -1000
    y[j0_l1_i1]  c30       -1000
    y[j0_l1_i1]  c31       -1000
    y[j0_l1_i1]  c34       -1000
    y[j0_l1_i1]  c35       -1000
    y[j0_l1_i1]  c44       -1000
    y[j0_l1_i1]  c45       -1000
    y[j0_l1_i1]  c54       -1000
    y[j0_l1_i1]  c55       -1000
    y[j0_l1_i1]  c64       -1000
    y[j0_l1_i1]  c65       -1000
    y[j0_l1_i1]  c74       -1000
    y[j0_l1_i1]  c75       -1000
    y[j0_l1_i1]  c117      -4
    y[j0_l2_i2]  c2        1
    y[j0_l2_i2]  c12       -1000
    y[j0_l2_i2]  c32       -1000
    y[j0_l2_i2]  c33       -1000
    y[j0_l2_i2]  c84       -1000
    y[j0_l2_i2]  c85       -1000
    y[j0_l2_i2]  c114      -3
    y[j0_l2_i2]  c115      -3
    y[j0_l2_i2]  c117      -3
    y[j0_l3_i1]  c3        1
    y[j0_l3_i1]  c13       -1000
    y[j0_l3_i1]  c22       -1000
    y[j0_l3_i1]  c23       -1000
    y[j0_l3_i1]  c34       -1000
    y[j0_l3_i1]  c35       -1000
    y[j0_l3_i1]  c36       -1000
    y[j0_l3_i1]  c37       -1000
    y[j0_l3_i1]  c38       -1000
    y[j0_l3_i1]  c39       -1000
    y[j0_l3_i1]  c40       -1000
    y[j0_l3_i1]  c41       -1000
    y[j0_l3_i1]  c42       -1000
    y[j0_l3_i1]  c43       -1000
    y[j0_l3_i1]  c46       -1000
    y[j0_l3_i1]  c47       -1000
    y[j0_l3_i1]  c56       -1000
    y[j0_l3_i1]  c57       -1000
    y[j0_l3_i1]  c66       -1000
    y[j0_l3_i1]  c67       -1000
    y[j0_l3_i1]  c76       -1000
    y[j0_l3_i1]  c77       -1000
    y[j0_l3_i1]  c117      -2
    y[j0_l4_i1]  c4        1
    y[j0_l4_i1]  c14       -1000
    y[j0_l4_i1]  c24       -1000
    y[j0_l4_i1]  c25       -1000
    y[j0_l4_i1]  c36       -1000
    y[j0_l4_i1]  c37       -1000
    y[j0_l4_i1]  c44       -1000
    y[j0_l4_i1]  c45       -1000
    y[j0_l4_i1]  c46       -1000
    y[j0_l4_i1]  c47       -1000
    y[j0_l4_i1]  c48       -1000
    y[j0_l4_i1]  c49       -1000
    y[j0_l4_i1]  c50       -1000
    y[j0_l4_i1]  c51       -1000
    y[j0_l4_i1]  c52       -1000
    y[j0_l4_i1]  c53       -1000
    y[j0_l4_i1]  c58       -1000
    y[j0_l4_i1]  c59       -1000
    y[j0_l4_i1]  c68       -1000
    y[j0_l4_i1]  c69       -1000
    y[j0_l4_i1]  c78       -1000
    y[j0_l4_i1]  c79       -1000
    y[j0_l4_i1]  c116      -4
    y[j0_l4_i1]  c117      -4
    y[j0_l5_i1]  c5        1
    y[j0_l5_i1]  c15       -1000
    y[j0_l5_i1]  c26       -1000
    y[j0_l5_i1]  c27       -1000
    y[j0_l5_i1]  c38       -1000
    y[j0_l5_i1]  c39       -1000
    y[j0_l5_i1]  c48       -1000
    y[j0_l5_i1]  c49       -1000
    y[j0_l5_i1]  c54       -1000
    y[j0_l5_i1]  c55       -1000
    y[j0_l5_i1]  c56       -1000
    y[j0_l5_i1]  c57       -1000
    y[j0_l5_i1]  c58       -1000
    y[j0_l5_i1]  c59       -1000
    y[j0_l5_i1]  c60       -1000
    y[j0_l5_i1]  c61       -1000
    y[j0_l5_i1]  c62       -1000
    y[j0_l5_i1]  c63       -1000
    y[j0_l5_i1]  c70       -1000
    y[j0_l5_i1]  c71       -1000
    y[j0_l5_i1]  c80       -1000
    y[j0_l5_i1]  c81       -1000
    y[j0_l5_i1]  c117      -3
    y[j0_l6_i1]  c6        1
    y[j0_l6_i1]  c16       -1000
    y[j0_l6_i1]  c28       -1000
    y[j0_l6_i1]  c29       -1000
    y[j0_l6_i1]  c40       -1000
    y[j0_l6_i1]  c41       -1000
    y[j0_l6_i1]  c50       -1000
    y[j0_l6_i1]  c51       -1000
    y[j0_l6_i1]  c60       -1000
    y[j0_l6_i1]  c61       -1000
    y[j0_l6_i1]  c64       -1000
    y[j0_l6_i1]  c65       -1000
    y[j0_l6_i1]  c66       -1000
    y[j0_l6_i1]  c67       -1000
    y[j0_l6_i1]  c68       -1000
    y[j0_l6_i1]  c69       -1000
    y[j0_l6_i1]  c70       -1000
    y[j0_l6_i1]  c71       -1000
    y[j0_l6_i1]  c72       -1000
    y[j0_l6_i1]  c73       -1000
    y[j0_l6_i1]  c82       -1000
    y[j0_l6_i1]  c83       -1000
    y[j0_l6_i1]  c117      -4
    y[j0_l7_i1]  c7        1
    y[j0_l7_i1]  c17       -1000
    y[j0_l7_i1]  c30       -1000
    y[j0_l7_i1]  c31       -1000
    y[j0_l7_i1]  c42       -1000
    y[j0_l7_i1]  c43       -1000
    y[j0_l7_i1]  c52       -1000
    y[j0_l7_i1]  c53       -1000
    y[j0_l7_i1]  c62       -1000
    y[j0_l7_i1]  c63       -1000
    y[j0_l7_i1]  c72       -1000
    y[j0_l7_i1]  c73       -1000
    y[j0_l7_i1]  c74       -1000
    y[j0_l7_i1]  c75       -1000
    y[j0_l7_i1]  c76       -1000
    y[j0_l7_i1]  c77       -1000
    y[j0_l7_i1]  c78       -1000
    y[j0_l7_i1]  c79       -1000
    y[j0_l7_i1]  c80       -1000
    y[j0_l7_i1]  c81       -1000
    y[j0_l7_i1]  c82       -1000
    y[j0_l7_i1]  c83       -1000
    y[j0_l7_i1]  c117      -2
    y[j0_l8_i2]  c8        1
    y[j0_l8_i2]  c18       -1000
    y[j0_l8_i2]  c32       -1000
    y[j0_l8_i2]  c33       -1000
    y[j0_l8_i2]  c84       -1000
    y[j0_l8_i2]  c85       -1000
    y[j0_l8_i2]  c117      -2
    y[j0_l9_i0]  c9        1
    y[j0_l9_i0]  c19       -1000
    y[j0_l9_i0]  c20       -1000
    y[j0_l9_i0]  c21       -1000
    y[j0_l9_i0]  c86       -1000
    y[j0_l9_i0]  c87       -1000
    y[j0_l9_i0]  c117      -4
    x[j1l10_0_j2l20_0]  OBJ       0
    x[j1l10_0_j2l20_1]  OBJ       0
    x[j1l10_0_j2l20_2]  OBJ       0
    x[j1l10_0_j2l20_3]  OBJ       0
    x[j1l10_0_j2l20_4]  OBJ       0
    x[j1l10_0_j2l20_5]  OBJ       0
    x[j1l10_0_j2l20_6]  OBJ       0
    x[j1l10_0_j2l20_7]  OBJ       0
    x[j1l10_0_j2l20_8]  OBJ       0
    x[j1l10_0_j2l20_9]  c20       -1000
    x[j1l10_0_j2l20_9]  c21       1000
    x[j1l10_1_j2l20_0]  OBJ       0
    x[j1l10_1_j2l20_1]  OBJ       0
    x[j1l10_1_j2l20_2]  OBJ       0
    x[j1l10_1_j2l20_3]  c22       -1000
    x[j1l10_1_j2l20_3]  c23       1000
    x[j1l10_1_j2l20_4]  c24       -1000
    x[j1l10_1_j2l20_4]  c25       1000
    x[j1l10_1_j2l20_5]  c26       -1000
    x[j1l10_1_j2l20_5]  c27       1000
    x[j1l10_1_j2l20_6]  c28       -1000
    x[j1l10_1_j2l20_6]  c29       1000
    x[j1l10_1_j2l20_7]  c30       -1000
    x[j1l10_1_j2l20_7]  c31       1000
    x[j1l10_1_j2l20_8]  OBJ       0
    x[j1l10_1_j2l20_9]  OBJ       0
    x[j1l10_2_j2l20_0]  OBJ       0
    x[j1l10_2_j2l20_1]  OBJ       0
    x[j1l10_2_j2l20_2]  OBJ       0
    x[j1l10_2_j2l20_3]  OBJ       0
    x[j1l10_2_j2l20_4]  OBJ       0
    x[j1l10_2_j2l20_5]  OBJ       0
    x[j1l10_2_j2l20_6]  OBJ       0
    x[j1l10_2_j2l20_7]  OBJ       0
    x[j1l10_2_j2l20_8]  c32       -1000
    x[j1l10_2_j2l20_8]  c33       1000
    x[j1l10_2_j2l20_9]  OBJ       0
    x[j1l10_3_j2l20_0]  OBJ       0
    x[j1l10_3_j2l20_1]  c34       -1000
    x[j1l10_3_j2l20_1]  c35       1000
    x[j1l10_3_j2l20_2]  OBJ       0
    x[j1l10_3_j2l20_3]  OBJ       0
    x[j1l10_3_j2l20_4]  c36       -1000
    x[j1l10_3_j2l20_4]  c37       1000
    x[j1l10_3_j2l20_5]  c38       -1000
    x[j1l10_3_j2l20_5]  c39       1000
    x[j1l10_3_j2l20_6]  c40       -1000
    x[j1l10_3_j2l20_6]  c41       1000
    x[j1l10_3_j2l20_7]  c42       -1000
    x[j1l10_3_j2l20_7]  c43       1000
    x[j1l10_3_j2l20_8]  OBJ       0
    x[j1l10_3_j2l20_9]  OBJ       0
    x[j1l10_4_j2l20_0]  OBJ       0
    x[j1l10_4_j2l20_1]  c44       -1000
    x[j1l10_4_j2l20_1]  c45       1000
    x[j1l10_4_j2l20_2]  OBJ       0
    x[j1l10_4_j2l20_3]  c46       -1000
    x[j1l10_4_j2l20_3]  c47       1000
    x[j1l10_4_j2l20_4]  OBJ       0
    x[j1l10_4_j2l20_5]  c48       -1000
    x[j1l10_4_j2l20_5]  c49       1000
    x[j1l10_4_j2l20_6]  c50       -1000
    x[j1l10_4_j2l20_6]  c51       1000
    x[j1l10_4_j2l20_7]  c52       -1000
    x[j1l10_4_j2l20_7]  c53       1000
    x[j1l10_4_j2l20_8]  OBJ       0
    x[j1l10_4_j2l20_9]  OBJ       0
    x[j1l10_5_j2l20_0]  OBJ       0
    x[j1l10_5_j2l20_1]  c54       -1000
    x[j1l10_5_j2l20_1]  c55       1000
    x[j1l10_5_j2l20_2]  OBJ       0
    x[j1l10_5_j2l20_3]  c56       -1000
    x[j1l10_5_j2l20_3]  c57       1000
    x[j1l10_5_j2l20_4]  c58       -1000
    x[j1l10_5_j2l20_4]  c59       1000
    x[j1l10_5_j2l20_5]  OBJ       0
    x[j1l10_5_j2l20_6]  c60       -1000
    x[j1l10_5_j2l20_6]  c61       1000
    x[j1l10_5_j2l20_7]  c62       -1000
    x[j1l10_5_j2l20_7]  c63       1000
    x[j1l10_5_j2l20_8]  OBJ       0
    x[j1l10_5_j2l20_9]  OBJ       0
    x[j1l10_6_j2l20_0]  OBJ       0
    x[j1l10_6_j2l20_1]  c64       -1000
    x[j1l10_6_j2l20_1]  c65       1000
    x[j1l10_6_j2l20_2]  OBJ       0
    x[j1l10_6_j2l20_3]  c66       -1000
    x[j1l10_6_j2l20_3]  c67       1000
    x[j1l10_6_j2l20_4]  c68       -1000
    x[j1l10_6_j2l20_4]  c69       1000
    x[j1l10_6_j2l20_5]  c70       -1000
    x[j1l10_6_j2l20_5]  c71       1000
    x[j1l10_6_j2l20_6]  OBJ       0
    x[j1l10_6_j2l20_7]  c72       -1000
    x[j1l10_6_j2l20_7]  c73       1000
    x[j1l10_6_j2l20_8]  OBJ       0
    x[j1l10_6_j2l20_9]  OBJ       0
    x[j1l10_7_j2l20_0]  OBJ       0
    x[j1l10_7_j2l20_1]  c74       -1000
    x[j1l10_7_j2l20_1]  c75       1000
    x[j1l10_7_j2l20_2]  OBJ       0
    x[j1l10_7_j2l20_3]  c76       -1000
    x[j1l10_7_j2l20_3]  c77       1000
    x[j1l10_7_j2l20_4]  c78       -1000
    x[j1l10_7_j2l20_4]  c79       1000
    x[j1l10_7_j2l20_5]  c80       -1000
    x[j1l10_7_j2l20_5]  c81       1000
    x[j1l10_7_j2l20_6]  c82       -1000
    x[j1l10_7_j2l20_6]  c83       1000
    x[j1l10_7_j2l20_7]  OBJ       0
    x[j1l10_7_j2l20_8]  OBJ       0
    x[j1l10_7_j2l20_9]  OBJ       0
    x[j1l10_8_j2l20_0]  OBJ       0
    x[j1l10_8_j2l20_1]  OBJ       0
    x[j1l10_8_j2l20_2]  c84       -1000
    x[j1l10_8_j2l20_2]  c85       1000
    x[j1l10_8_j2l20_3]  OBJ       0
    x[j1l10_8_j2l20_4]  OBJ       0
    x[j1l10_8_j2l20_5]  OBJ       0
    x[j1l10_8_j2l20_6]  OBJ       0
    x[j1l10_8_j2l20_7]  OBJ       0
    x[j1l10_8_j2l20_8]  OBJ       0
    x[j1l10_8_j2l20_9]  OBJ       0
    x[j1l10_9_j2l20_0]  c86       -1000
    x[j1l10_9_j2l20_0]  c87       1000
    x[j1l10_9_j2l20_1]  OBJ       0
    x[j1l10_9_j2l20_2]  OBJ       0
    x[j1l10_9_j2l20_3]  OBJ       0
    x[j1l10_9_j2l20_4]  OBJ       0
    x[j1l10_9_j2l20_5]  OBJ       0
    x[j1l10_9_j2l20_6]  OBJ       0
    x[j1l10_9_j2l20_7]  OBJ       0
    x[j1l10_9_j2l20_8]  OBJ       0
    x[j1l10_9_j2l20_9]  OBJ       0
    s[j0_l0_i0]  c10       1
    s[j0_l0_i0]  c20       1
    s[j0_l0_i0]  c21       -1
    s[j0_l0_i0]  c86       -1
    s[j0_l0_i0]  c87       1
    s[j0_l0_i0]  c88       1
    s[j0_l0_i0]  c89       1
    s[j0_l0_i0]  c108      -1
    s[j0_l0_i0]  c109      -1
    s[j0_l0_i0]  c110      -1
    s[j0_l0_i0]  c111      -1
    s[j0_l0_i0]  c112      -1
    s[j0_l0_i0]  c113      -1
    s[j0_l0_i0]  c117      -1
    s[j0_l1_i1]  c11       1
    s[j0_l1_i1]  c22       1
    s[j0_l1_i1]  c23       -1
    s[j0_l1_i1]  c24       1
    s[j0_l1_i1]  c25       -1
    s[j0_l1_i1]  c26       1
    s[j0_l1_i1]  c27       -1
    s[j0_l1_i1]  c28       1
    s[j0_l1_i1]  c29       -1
    s[j0_l1_i1]  c30       1
    s[j0_l1_i1]  c31       -1
    s[j0_l1_i1]  c34       -1
    s[j0_l1_i1]  c35       1
    s[j0_l1_i1]  c44       -1
    s[j0_l1_i1]  c45       1
    s[j0_l1_i1]  c54       -1
    s[j0_l1_i1]  c55       1
    s[j0_l1_i1]  c64       -1
    s[j0_l1_i1]  c65       1
    s[j0_l1_i1]  c74       -1
    s[j0_l1_i1]  c75       1
    s[j0_l1_i1]  c90       1
    s[j0_l1_i1]  c91       1
    s[j0_l1_i1]  c108      1
    s[j0_l1_i1]  c117      -1
    s[j0_l2_i2]  c12       1
    s[j0_l2_i2]  c32       1
    s[j0_l2_i2]  c33       -1
    s[j0_l2_i2]  c84       -1
    s[j0_l2_i2]  c85       1
    s[j0_l2_i2]  c92       1
    s[j0_l2_i2]  c93       1
    s[j0_l2_i2]  c109      1
    s[j0_l2_i2]  c114      -1
    s[j0_l2_i2]  c115      -1
    s[j0_l2_i2]  c117      -1
    s[j0_l3_i1]  c13       1
    s[j0_l3_i1]  c22       -1
    s[j0_l3_i1]  c23       1
    s[j0_l3_i1]  c34       1
    s[j0_l3_i1]  c35       -1
    s[j0_l3_i1]  c36       1
    s[j0_l3_i1]  c37       -1
    s[j0_l3_i1]  c38       1
    s[j0_l3_i1]  c39       -1
    s[j0_l3_i1]  c40       1
    s[j0_l3_i1]  c41       -1
    s[j0_l3_i1]  c42       1
    s[j0_l3_i1]  c43       -1
    s[j0_l3_i1]  c46       -1
    s[j0_l3_i1]  c47       1
    s[j0_l3_i1]  c56       -1
    s[j0_l3_i1]  c57       1
    s[j0_l3_i1]  c66       -1
    s[j0_l3_i1]  c67       1
    s[j0_l3_i1]  c76       -1
    s[j0_l3_i1]  c77       1
    s[j0_l3_i1]  c94       1
    s[j0_l3_i1]  c95       1
    s[j0_l3_i1]  c114      1
    s[j0_l3_i1]  c117      -1
    s[j0_l4_i1]  c14       1
    s[j0_l4_i1]  c24       -1
    s[j0_l4_i1]  c25       1
    s[j0_l4_i1]  c36       -1
    s[j0_l4_i1]  c37       1
    s[j0_l4_i1]  c44       1
    s[j0_l4_i1]  c45       -1
    s[j0_l4_i1]  c46       1
    s[j0_l4_i1]  c47       -1
    s[j0_l4_i1]  c48       1
    s[j0_l4_i1]  c49       -1
    s[j0_l4_i1]  c50       1
    s[j0_l4_i1]  c51       -1
    s[j0_l4_i1]  c52       1
    s[j0_l4_i1]  c53       -1
    s[j0_l4_i1]  c58       -1
    s[j0_l4_i1]  c59       1
    s[j0_l4_i1]  c68       -1
    s[j0_l4_i1]  c69       1
    s[j0_l4_i1]  c78       -1
    s[j0_l4_i1]  c79       1
    s[j0_l4_i1]  c96       1
    s[j0_l4_i1]  c97       1
    s[j0_l4_i1]  c110      1
    s[j0_l4_i1]  c116      -1
    s[j0_l4_i1]  c117      -1
    s[j0_l5_i1]  c15       1
    s[j0_l5_i1]  c26       -1
    s[j0_l5_i1]  c27       1
    s[j0_l5_i1]  c38       -1
    s[j0_l5_i1]  c39       1
    s[j0_l5_i1]  c48       -1
    s[j0_l5_i1]  c49       1
    s[j0_l5_i1]  c54       1
    s[j0_l5_i1]  c55       -1
    s[j0_l5_i1]  c56       1
    s[j0_l5_i1]  c57       -1
    s[j0_l5_i1]  c58       1
    s[j0_l5_i1]  c59       -1
    s[j0_l5_i1]  c60       1
    s[j0_l5_i1]  c61       -1
    s[j0_l5_i1]  c62       1
    s[j0_l5_i1]  c63       -1
    s[j0_l5_i1]  c70       -1
    s[j0_l5_i1]  c71       1
    s[j0_l5_i1]  c80       -1
    s[j0_l5_i1]  c81       1
    s[j0_l5_i1]  c98       1
    s[j0_l5_i1]  c99       1
    s[j0_l5_i1]  c111      1
    s[j0_l5_i1]  c117      -1
    s[j0_l6_i1]  c16       1
    s[j0_l6_i1]  c28       -1
    s[j0_l6_i1]  c29       1
    s[j0_l6_i1]  c40       -1
    s[j0_l6_i1]  c41       1
    s[j0_l6_i1]  c50       -1
    s[j0_l6_i1]  c51       1
    s[j0_l6_i1]  c60       -1
    s[j0_l6_i1]  c61       1
    s[j0_l6_i1]  c64       1
    s[j0_l6_i1]  c65       -1
    s[j0_l6_i1]  c66       1
    s[j0_l6_i1]  c67       -1
    s[j0_l6_i1]  c68       1
    s[j0_l6_i1]  c69       -1
    s[j0_l6_i1]  c70       1
    s[j0_l6_i1]  c71       -1
    s[j0_l6_i1]  c72       1
    s[j0_l6_i1]  c73       -1
    s[j0_l6_i1]  c82       -1
    s[j0_l6_i1]  c83       1
    s[j0_l6_i1]  c100      1
    s[j0_l6_i1]  c101      1
    s[j0_l6_i1]  c115      1
    s[j0_l6_i1]  c117      -1
    s[j0_l7_i1]  c17       1
    s[j0_l7_i1]  c30       -1
    s[j0_l7_i1]  c31       1
    s[j0_l7_i1]  c42       -1
    s[j0_l7_i1]  c43       1
    s[j0_l7_i1]  c52       -1
    s[j0_l7_i1]  c53       1
    s[j0_l7_i1]  c62       -1
    s[j0_l7_i1]  c63       1
    s[j0_l7_i1]  c72       -1
    s[j0_l7_i1]  c73       1
    s[j0_l7_i1]  c74       1
    s[j0_l7_i1]  c75       -1
    s[j0_l7_i1]  c76       1
    s[j0_l7_i1]  c77       -1
    s[j0_l7_i1]  c78       1
    s[j0_l7_i1]  c79       -1
    s[j0_l7_i1]  c80       1
    s[j0_l7_i1]  c81       -1
    s[j0_l7_i1]  c82       1
    s[j0_l7_i1]  c83       -1
    s[j0_l7_i1]  c102      1
    s[j0_l7_i1]  c103      1
    s[j0_l7_i1]  c112      1
    s[j0_l7_i1]  c117      -1
    s[j0_l8_i2]  c18       1
    s[j0_l8_i2]  c32       -1
    s[j0_l8_i2]  c33       1
    s[j0_l8_i2]  c84       1
    s[j0_l8_i2]  c85       -1
    s[j0_l8_i2]  c104      1
    s[j0_l8_i2]  c105      1
    s[j0_l8_i2]  c116      1
    s[j0_l8_i2]  c117      -1
    s[j0_l9_i0]  c19       1
    s[j0_l9_i0]  c20       -1
    s[j0_l9_i0]  c21       1
    s[j0_l9_i0]  c86       1
    s[j0_l9_i0]  c87       -1
    s[j0_l9_i0]  c106      1
    s[j0_l9_i0]  c107      1
    s[j0_l9_i0]  c113      1
    s[j0_l9_i0]  c117      -1
    Z_FO      OBJ       1
    Z_FO      c117      1
    MARKER    'MARKER'                 'INTEND'
RHS
    RHS1      c0        1
    RHS1      c1        1
    RHS1      c2        1
    RHS1      c3        1
    RHS1      c4        1
    RHS1      c5        1
    RHS1      c6        1
    RHS1      c7        1
    RHS1      c8        1
    RHS1      c9        1
    RHS1      c20       -2993
    RHS1      c21       -1994
    RHS1      c22       -2996
    RHS1      c23       -1994
    RHS1      c24       -2995
    RHS1      c25       -1994
    RHS1      c26       -2994
    RHS1      c27       -1994
    RHS1      c28       -2993
    RHS1      c29       -1993
    RHS1      c30       -2997
    RHS1      c31       -1993
    RHS1      c32       -2997
    RHS1      c33       -1994
    RHS1      c34       -2994
    RHS1      c35       -1996
    RHS1      c36       -2995
    RHS1      c37       -1995
    RHS1      c38       -2996
    RHS1      c39       -1996
    RHS1      c40       -2994
    RHS1      c41       -1997
    RHS1      c42       -2997
    RHS1      c43       -1995
    RHS1      c44       -2994
    RHS1      c45       -1995
    RHS1      c46       -2995
    RHS1      c47       -1995
    RHS1      c48       -2994
    RHS1      c49       -1994
    RHS1      c50       -2993
    RHS1      c51       -1993
    RHS1      c52       -2997
    RHS1      c53       -1993
    RHS1      c54       -2994
    RHS1      c55       -1994
    RHS1      c56       -2996
    RHS1      c57       -1996
    RHS1      c58       -2994
    RHS1      c59       -1994
    RHS1      c60       -2995
    RHS1      c61       -1995
    RHS1      c62       -2995
    RHS1      c63       -1996
    RHS1      c64       -2993
    RHS1      c65       -1993
    RHS1      c66       -2997
    RHS1      c67       -1994
    RHS1      c68       -2993
    RHS1      c69       -1993
    RHS1      c70       -2995
    RHS1      c71       -1995
    RHS1      c72       -2996
    RHS1      c73       -1993
    RHS1      c74       -2993
    RHS1      c75       -1997
    RHS1      c76       -2995
    RHS1      c77       -1997
    RHS1      c78       -2993
    RHS1      c79       -1997
    RHS1      c80       -2996
    RHS1      c81       -1995
    RHS1      c82       -2993
    RHS1      c83       -1996
    RHS1      c84       -2994
    RHS1      c85       -1997
    RHS1      c86       -2994
    RHS1      c87       -1993
BOUNDS
 BV BND1      y[j0_l0_i0]
 BV BND1      y[j0_l1_i1]
 BV BND1      y[j0_l2_i2]
 BV BND1      y[j0_l3_i1]
 BV BND1      y[j0_l4_i1]
 BV BND1      y[j0_l5_i1]
 BV BND1      y[j0_l6_i1]
 BV BND1      y[j0_l7_i1]
 BV BND1      y[j0_l8_i2]
 BV BND1      y[j0_l9_i0]
 BV BND1      x[j1l10_0_j2l20_0]
 BV BND1      x[j1l10_0_j2l20_1]
 BV BND1      x[j1l10_0_j2l20_2]
 BV BND1      x[j1l10_0_j2l20_3]
 BV BND1      x[j1l10_0_j2l20_4]
 BV BND1      x[j1l10_0_j2l20_5]
 BV BND1      x[j1l10_0_j2l20_6]
 BV BND1      x[j1l10_0_j2l20_7]
 BV BND1      x[j1l10_0_j2l20_8]
 BV BND1      x[j1l10_0_j2l20_9]
 BV BND1      x[j1l10_1_j2l20_0]
 BV BND1      x[j1l10_1_j2l20_1]
 BV BND1      x[j1l10_1_j2l20_2]
 BV BND1      x[j1l10_1_j2l20_3]
 BV BND1      x[j1l10_1_j2l20_4]
 BV BND1      x[j1l10_1_j2l20_5]
 BV BND1      x[j1l10_1_j2l20_6]
 BV BND1      x[j1l10_1_j2l20_7]
 BV BND1      x[j1l10_1_j2l20_8]
 BV BND1      x[j1l10_1_j2l20_9]
 BV BND1      x[j1l10_2_j2l20_0]
 BV BND1      x[j1l10_2_j2l20_1]
 BV BND1      x[j1l10_2_j2l20_2]
 BV BND1      x[j1l10_2_j2l20_3]
 BV BND1      x[j1l10_2_j2l20_4]
 BV BND1      x[j1l10_2_j2l20_5]
 BV BND1      x[j1l10_2_j2l20_6]
 BV BND1      x[j1l10_2_j2l20_7]
 BV BND1      x[j1l10_2_j2l20_8]
 BV BND1      x[j1l10_2_j2l20_9]
 BV BND1      x[j1l10_3_j2l20_0]
 BV BND1      x[j1l10_3_j2l20_1]
 BV BND1      x[j1l10_3_j2l20_2]
 BV BND1      x[j1l10_3_j2l20_3]
 BV BND1      x[j1l10_3_j2l20_4]
 BV BND1      x[j1l10_3_j2l20_5]
 BV BND1      x[j1l10_3_j2l20_6]
 BV BND1      x[j1l10_3_j2l20_7]
 BV BND1      x[j1l10_3_j2l20_8]
 BV BND1      x[j1l10_3_j2l20_9]
 BV BND1      x[j1l10_4_j2l20_0]
 BV BND1      x[j1l10_4_j2l20_1]
 BV BND1      x[j1l10_4_j2l20_2]
 BV BND1      x[j1l10_4_j2l20_3]
 BV BND1      x[j1l10_4_j2l20_4]
 BV BND1      x[j1l10_4_j2l20_5]
 BV BND1      x[j1l10_4_j2l20_6]
 BV BND1      x[j1l10_4_j2l20_7]
 BV BND1      x[j1l10_4_j2l20_8]
 BV BND1      x[j1l10_4_j2l20_9]
 BV BND1      x[j1l10_5_j2l20_0]
 BV BND1      x[j1l10_5_j2l20_1]
 BV BND1      x[j1l10_5_j2l20_2]
 BV BND1      x[j1l10_5_j2l20_3]
 BV BND1      x[j1l10_5_j2l20_4]
 BV BND1      x[j1l10_5_j2l20_5]
 BV BND1      x[j1l10_5_j2l20_6]
 BV BND1      x[j1l10_5_j2l20_7]
 BV BND1      x[j1l10_5_j2l20_8]
 BV BND1      x[j1l10_5_j2l20_9]
 BV BND1      x[j1l10_6_j2l20_0]
 BV BND1      x[j1l10_6_j2l20_1]
 BV BND1      x[j1l10_6_j2l20_2]
 BV BND1      x[j1l10_6_j2l20_3]
 BV BND1      x[j1l10_6_j2l20_4]
 BV BND1      x[j1l10_6_j2l20_5]
 BV BND1      x[j1l10_6_j2l20_6]
 BV BND1      x[j1l10_6_j2l20_7]
 BV BND1      x[j1l10_6_j2l20_8]
 BV BND1      x[j1l10_6_j2l20_9]
 BV BND1      x[j1l10_7_j2l20_0]
 BV BND1      x[j1l10_7_j2l20_1]
 BV BND1      x[j1l10_7_j2l20_2]
 BV BND1      x[j1l10_7_j2l20_3]
 BV BND1      x[j1l10_7_j2l20_4]
 BV BND1      x[j1l10_7_j2l20_5]
 BV BND1      x[j1l10_7_j2l20_6]
 BV BND1      x[j1l10_7_j2l20_7]
 BV BND1      x[j1l10_7_j2l20_8]
 BV BND1      x[j1l10_7_j2l20_9]
 BV BND1      x[j1l10_8_j2l20_0]
 BV BND1      x[j1l10_8_j2l20_1]
 BV BND1      x[j1l10_8_j2l20_2]
 BV BND1      x[j1l10_8_j2l20_3]
 BV BND1      x[j1l10_8_j2l20_4]
 BV BND1      x[j1l10_8_j2l20_5]
 BV BND1      x[j1l10_8_j2l20_6]
 BV BND1      x[j1l10_8_j2l20_7]
 BV BND1      x[j1l10_8_j2l20_8]
 BV BND1      x[j1l10_8_j2l20_9]
 BV BND1      x[j1l10_9_j2l20_0]
 BV BND1      x[j1l10_9_j2l20_1]
 BV BND1      x[j1l10_9_j2l20_2]
 BV BND1      x[j1l10_9_j2l20_3]
 BV BND1      x[j1l10_9_j2l20_4]
 BV BND1      x[j1l10_9_j2l20_5]
 BV BND1      x[j1l10_9_j2l20_6]
 BV BND1      x[j1l10_9_j2l20_7]
 BV BND1      x[j1l10_9_j2l20_8]
 BV BND1      x[j1l10_9_j2l20_9]
 LI BND1      s[j0_l0_i0]  0
 LI BND1      s[j0_l1_i1]  0
 LI BND1      s[j0_l2_i2]  0
 LI BND1      s[j0_l3_i1]  0
 LI BND1      s[j0_l4_i1]  0
 LI BND1      s[j0_l5_i1]  0
 LI BND1      s[j0_l6_i1]  0
 LI BND1      s[j0_l7_i1]  0
 LI BND1      s[j0_l8_i2]  0
 LI BND1      s[j0_l9_i0]  0
 LI BND1      Z_FO      0
ENDATA
